Minimize
3 x_T4_C4_Day_1 + 3 x_T2_C4_Day_4 + 1 g_T2_C2 + 3 x_T4_C1_Day_2 + 3 x_T2_C3_Day_2 + 3 x_T4_C4_Day_2 + 3 x_T4_C1_Day_1 + 9 y_T4 + 1 g_T3_C1 + 3 x_T1_C1_Day_1 + 3 x_T4_C3_Day_4 + 3 x_T3_C4_Day_1 + 3 x_T2_C4_Day_3 + 3 x_T1_C3_Day_1 + 3 x_T4_C3_Day_1 + 3 x_T2_C3_Day_3 + 3 x_T2_C3_Day_1 + 3 x_T2_C2_Day_2 + 3 x_T2_C3_Day_4 + 3 x_T3_C1_Day_2 + 3 x_T1_C4_Day_4 + 3 x_T3_C1_Day_4 + 3 x_T2_C2_Day_1 + 3 x_T3_C3_Day_4 + 3 x_T4_C4_Day_3 + 1 g_T1_C3 + 3 x_T3_C2_Day_2 + 3 x_T4_C2_Day_1 + 1 g_T4_C4 + 3 x_T4_C2_Day_3 + 3 x_T1_C2_Day_4 + 3 x_T1_C4_Day_2 + 3 x_T1_C3_Day_3 + 3 x_T1_C1_Day_2 + 3 x_T3_C2_Day_1 + 3 x_T1_C4_Day_1 + 3 x_T1_C1_Day_3 + 1 g_T1_C1 + 3 x_T2_C1_Day_4 + 3 x_T4_C2_Day_2 + 3 x_T2_C1_Day_2 + 9 y_T1 + 1 g_T2_C1 + 1 g_T4_C1 + 3 x_T3_C4_Day_4 + 3 x_T2_C4_Day_1 + 3 x_T3_C3_Day_2 + 3 x_T2_C2_Day_4 + 1 g_T4_C3 + 3 x_T1_C2_Day_3 + 3 x_T3_C2_Day_4 + 3 x_T1_C1_Day_4 + 3 x_T3_C1_Day_1 + 3 x_T3_C4_Day_3 + 9 y_T3 + 1 g_T3_C3 + 3 x_T2_C1_Day_3 + 3 x_T3_C4_Day_2 + 3 x_T3_C3_Day_1 + 1 g_T3_C4 + 3 x_T3_C3_Day_3 + 3 x_T4_C1_Day_4 + 3 x_T1_C2_Day_2 + 3 x_T1_C4_Day_3 + 3 x_T3_C1_Day_3 + 3 x_T3_C2_Day_3 + 3 x_T4_C3_Day_2 + 3 x_T2_C1_Day_1 + 3 x_T2_C2_Day_3 + 1 g_T2_C3 + 9 y_T2 + 3 x_T4_C3_Day_3 + 1 g_T3_C2 + 3 x_T4_C4_Day_4 + 3 x_T1_C3_Day_2 + 3 x_T1_C2_Day_1 + 1 g_T1_C2 + 1 g_T1_C4 + 3 x_T4_C2_Day_4 + 1 g_T2_C4 + 3 x_T1_C3_Day_4 + 3 x_T2_C4_Day_2 + 1 g_T4_C2 + 3 x_T4_C1_Day_3
Subject To
 flow_T1_Day_1: x_T1_C1_Day_1 + x_T1_C2_Day_1 + x_T1_C3_Day_1 + x_T1_C4_Day_1 - x_T1_C1_Day_1 - x_T1_C2_Day_1 - x_T1_C3_Day_1 - x_T1_C4_Day_1 = 1
 flow_T1_Day_2: x_T1_C1_Day_2 + x_T1_C2_Day_2 + x_T1_C3_Day_2 + x_T1_C4_Day_2 - x_T1_C1_Day_2 - x_T1_C2_Day_2 - x_T1_C3_Day_2 - x_T1_C4_Day_2 = 0
 flow_T1_Day_3: x_T1_C1_Day_3 + x_T1_C2_Day_3 + x_T1_C3_Day_3 + x_T1_C4_Day_3 - x_T1_C1_Day_3 - x_T1_C2_Day_3 - x_T1_C3_Day_3 - x_T1_C4_Day_3 = 0
 flow_T1_Day_4: x_T1_C1_Day_4 + x_T1_C2_Day_4 + x_T1_C3_Day_4 + x_T1_C4_Day_4 - x_T1_C1_Day_4 - x_T1_C2_Day_4 - x_T1_C3_Day_4 - x_T1_C4_Day_4 = 0
 flow_T2_Day_1: x_T2_C1_Day_1 + x_T2_C2_Day_1 + x_T2_C3_Day_1 + x_T2_C4_Day_1 - x_T2_C1_Day_1 - x_T2_C2_Day_1 - x_T2_C3_Day_1 - x_T2_C4_Day_1 = 1
 flow_T2_Day_2: x_T2_C1_Day_2 + x_T2_C2_Day_2 + x_T2_C3_Day_2 + x_T2_C4_Day_2 - x_T2_C1_Day_2 - x_T2_C2_Day_2 - x_T2_C3_Day_2 - x_T2_C4_Day_2 = 0
 flow_T2_Day_3: x_T2_C1_Day_3 + x_T2_C2_Day_3 + x_T2_C3_Day_3 + x_T2_C4_Day_3 - x_T2_C1_Day_3 - x_T2_C2_Day_3 - x_T2_C3_Day_3 - x_T2_C4_Day_3 = 0
 flow_T2_Day_4: x_T2_C1_Day_4 + x_T2_C2_Day_4 + x_T2_C3_Day_4 + x_T2_C4_Day_4 - x_T2_C1_Day_4 - x_T2_C2_Day_4 - x_T2_C3_Day_4 - x_T2_C4_Day_4 = 0
 flow_T3_Day_1: x_T3_C1_Day_1 + x_T3_C2_Day_1 + x_T3_C3_Day_1 + x_T3_C4_Day_1 - x_T3_C1_Day_1 - x_T3_C2_Day_1 - x_T3_C3_Day_1 - x_T3_C4_Day_1 = 1
 flow_T3_Day_2: x_T3_C1_Day_2 + x_T3_C2_Day_2 + x_T3_C3_Day_2 + x_T3_C4_Day_2 - x_T3_C1_Day_2 - x_T3_C2_Day_2 - x_T3_C3_Day_2 - x_T3_C4_Day_2 = 0
 flow_T3_Day_3: x_T3_C1_Day_3 + x_T3_C2_Day_3 + x_T3_C3_Day_3 + x_T3_C4_Day_3 - x_T3_C1_Day_3 - x_T3_C2_Day_3 - x_T3_C3_Day_3 - x_T3_C4_Day_3 = 0
 flow_T3_Day_4: x_T3_C1_Day_4 + x_T3_C2_Day_4 + x_T3_C3_Day_4 + x_T3_C4_Day_4 - x_T3_C1_Day_4 - x_T3_C2_Day_4 - x_T3_C3_Day_4 - x_T3_C4_Day_4 = 0
 flow_T4_Day_1: x_T4_C1_Day_1 + x_T4_C2_Day_1 + x_T4_C3_Day_1 + x_T4_C4_Day_1 - x_T4_C1_Day_1 - x_T4_C2_Day_1 - x_T4_C3_Day_1 - x_T4_C4_Day_1 = 1
 flow_T4_Day_2: x_T4_C1_Day_2 + x_T4_C2_Day_2 + x_T4_C3_Day_2 + x_T4_C4_Day_2 - x_T4_C1_Day_2 - x_T4_C2_Day_2 - x_T4_C3_Day_2 - x_T4_C4_Day_2 = 0
 flow_T4_Day_3: x_T4_C1_Day_3 + x_T4_C2_Day_3 + x_T4_C3_Day_3 + x_T4_C4_Day_3 - x_T4_C1_Day_3 - x_T4_C2_Day_3 - x_T4_C3_Day_3 - x_T4_C4_Day_3 = 0
 flow_T4_Day_4: x_T4_C1_Day_4 + x_T4_C2_Day_4 + x_T4_C3_Day_4 + x_T4_C4_Day_4 - x_T4_C1_Day_4 - x_T4_C2_Day_4 - x_T4_C3_Day_4 - x_T4_C4_Day_4 = 0
 capacity_C2_Day_1: x_T1_C2_Day_1 + x_T2_C2_Day_1 + x_T3_C2_Day_1 + x_T4_C2_Day_1 <= 1
 capacity_C2_Day_2: x_T1_C2_Day_2 + x_T2_C2_Day_2 + x_T3_C2_Day_2 + x_T4_C2_Day_2 <= 1
 capacity_C2_Day_3: x_T1_C2_Day_3 + x_T2_C2_Day_3 + x_T3_C2_Day_3 + x_T4_C2_Day_3 <= 1
 capacity_C2_Day_4: x_T1_C2_Day_4 + x_T2_C2_Day_4 + x_T3_C2_Day_4 + x_T4_C2_Day_4 <= 1
 capacity_C1_Day_1: x_T1_C1_Day_1 + x_T2_C1_Day_1 + x_T3_C1_Day_1 + x_T4_C1_Day_1 <= 1
 capacity_C1_Day_2: x_T1_C1_Day_2 + x_T2_C1_Day_2 + x_T3_C1_Day_2 + x_T4_C1_Day_2 <= 1
 capacity_C1_Day_3: x_T1_C1_Day_3 + x_T2_C1_Day_3 + x_T3_C1_Day_3 + x_T4_C1_Day_3 <= 1
 capacity_C1_Day_4: x_T1_C1_Day_4 + x_T2_C1_Day_4 + x_T3_C1_Day_4 + x_T4_C1_Day_4 <= 1
 capacity_C3_Day_1: x_T1_C3_Day_1 + x_T2_C3_Day_1 + x_T3_C3_Day_1 + x_T4_C3_Day_1 <= 1
 capacity_C3_Day_2: x_T1_C3_Day_2 + x_T2_C3_Day_2 + x_T3_C3_Day_2 + x_T4_C3_Day_2 <= 1
 capacity_C3_Day_3: x_T1_C3_Day_3 + x_T2_C3_Day_3 + x_T3_C3_Day_3 + x_T4_C3_Day_3 <= 1
 capacity_C3_Day_4: x_T1_C3_Day_4 + x_T2_C3_Day_4 + x_T3_C3_Day_4 + x_T4_C3_Day_4 <= 1
 capacity_C4_Day_1: x_T1_C4_Day_1 + x_T2_C4_Day_1 + x_T3_C4_Day_1 + x_T4_C4_Day_1 <= 1
 capacity_C4_Day_2: x_T1_C4_Day_2 + x_T2_C4_Day_2 + x_T3_C4_Day_2 + x_T4_C4_Day_2 <= 1
 capacity_C4_Day_3: x_T1_C4_Day_3 + x_T2_C4_Day_3 + x_T3_C4_Day_3 + x_T4_C4_Day_3 <= 1
 capacity_C4_Day_4: x_T1_C4_Day_4 + x_T2_C4_Day_4 + x_T3_C4_Day_4 + x_T4_C4_Day_4 <= 1
 workload_T1_C1: x_T1_C1_Day_1 + x_T1_C1_Day_2 + x_T1_C1_Day_3 + x_T1_C1_Day_4 = 1
 workload_T2_C1: x_T2_C1_Day_1 + x_T2_C1_Day_2 + x_T2_C1_Day_3 + x_T2_C1_Day_4 = 1
 workload_T3_C1: x_T3_C1_Day_1 + x_T3_C1_Day_2 + x_T3_C1_Day_3 + x_T3_C1_Day_4 = 1
 workload_T4_C1: x_T4_C1_Day_1 + x_T4_C1_Day_2 + x_T4_C1_Day_3 + x_T4_C1_Day_4 = 1
 workload_T1_C2: x_T1_C2_Day_1 + x_T1_C2_Day_2 + x_T1_C2_Day_3 + x_T1_C2_Day_4 = 1
 workload_T2_C2: x_T2_C2_Day_1 + x_T2_C2_Day_2 + x_T2_C2_Day_3 + x_T2_C2_Day_4 = 1
 workload_T3_C2: x_T3_C2_Day_1 + x_T3_C2_Day_2 + x_T3_C2_Day_3 + x_T3_C2_Day_4 = 1
 workload_T4_C2: x_T4_C2_Day_1 + x_T4_C2_Day_2 + x_T4_C2_Day_3 + x_T4_C2_Day_4 = 1
 workload_T1_C3: x_T1_C3_Day_1 + x_T1_C3_Day_2 + x_T1_C3_Day_3 + x_T1_C3_Day_4 = 1
 workload_T2_C3: x_T2_C3_Day_1 + x_T2_C3_Day_2 + x_T2_C3_Day_3 + x_T2_C3_Day_4 = 1
 workload_T3_C3: x_T3_C3_Day_1 + x_T3_C3_Day_2 + x_T3_C3_Day_3 + x_T3_C3_Day_4 = 1
 workload_T4_C3: x_T4_C3_Day_1 + x_T4_C3_Day_2 + x_T4_C3_Day_3 + x_T4_C3_Day_4 = 1
 workload_T1_C4: x_T1_C4_Day_1 + x_T1_C4_Day_2 + x_T1_C4_Day_3 + x_T1_C4_Day_4 = 1
 workload_T2_C4: x_T2_C4_Day_1 + x_T2_C4_Day_2 + x_T2_C4_Day_3 + x_T2_C4_Day_4 = 1
 workload_T3_C4: x_T3_C4_Day_1 + x_T3_C4_Day_2 + x_T3_C4_Day_3 + x_T3_C4_Day_4 = 1
 workload_T4_C4: x_T4_C4_Day_1 + x_T4_C4_Day_2 + x_T4_C4_Day_3 + x_T4_C4_Day_4 = 1
 max_daily_T1_C1_Day: x_T1_C1_Day_1 + x_T1_C1_Day_2 + x_T1_C1_Day_3 + x_T1_C1_Day_4 <= 2
 max_daily_T2_C1_Day: x_T2_C1_Day_1 + x_T2_C1_Day_2 + x_T2_C1_Day_3 + x_T2_C1_Day_4 <= 2
 max_daily_T3_C1_Day: x_T3_C1_Day_1 + x_T3_C1_Day_2 + x_T3_C1_Day_3 + x_T3_C1_Day_4 <= 2
 max_daily_T4_C1_Day: x_T4_C1_Day_1 + x_T4_C1_Day_2 + x_T4_C1_Day_3 + x_T4_C1_Day_4 <= 2
 max_daily_T1_C2_Day: x_T1_C2_Day_1 + x_T1_C2_Day_2 + x_T1_C2_Day_3 + x_T1_C2_Day_4 <= 2
 max_daily_T2_C2_Day: x_T2_C2_Day_1 + x_T2_C2_Day_2 + x_T2_C2_Day_3 + x_T2_C2_Day_4 <= 2
 max_daily_T3_C2_Day: x_T3_C2_Day_1 + x_T3_C2_Day_2 + x_T3_C2_Day_3 + x_T3_C2_Day_4 <= 2
 max_daily_T4_C2_Day: x_T4_C2_Day_1 + x_T4_C2_Day_2 + x_T4_C2_Day_3 + x_T4_C2_Day_4 <= 2
 max_daily_T1_C3_Day: x_T1_C3_Day_1 + x_T1_C3_Day_2 + x_T1_C3_Day_3 + x_T1_C3_Day_4 <= 2
 max_daily_T2_C3_Day: x_T2_C3_Day_1 + x_T2_C3_Day_2 + x_T2_C3_Day_3 + x_T2_C3_Day_4 <= 2
 max_daily_T3_C3_Day: x_T3_C3_Day_1 + x_T3_C3_Day_2 + x_T3_C3_Day_3 + x_T3_C3_Day_4 <= 2
 max_daily_T4_C3_Day: x_T4_C3_Day_1 + x_T4_C3_Day_2 + x_T4_C3_Day_3 + x_T4_C3_Day_4 <= 2
 max_daily_T1_C4_Day: x_T1_C4_Day_1 + x_T1_C4_Day_2 + x_T1_C4_Day_3 + x_T1_C4_Day_4 <= 2
 max_daily_T2_C4_Day: x_T2_C4_Day_1 + x_T2_C4_Day_2 + x_T2_C4_Day_3 + x_T2_C4_Day_4 <= 2
 max_daily_T3_C4_Day: x_T3_C4_Day_1 + x_T3_C4_Day_2 + x_T3_C4_Day_3 + x_T3_C4_Day_4 <= 2
 max_daily_T4_C4_Day: x_T4_C4_Day_1 + x_T4_C4_Day_2 + x_T4_C4_Day_3 + x_T4_C4_Day_4 <= 2
 first_period_C2_Day_1: x_T1_C2_Day_1 + x_T2_C2_Day_1 + x_T3_C2_Day_1 + x_T4_C2_Day_1 <= 1
 first_period_C1_Day_1: x_T1_C1_Day_1 + x_T2_C1_Day_1 + x_T3_C1_Day_1 + x_T4_C1_Day_1 <= 1
 first_period_C3_Day_1: x_T1_C3_Day_1 + x_T2_C3_Day_1 + x_T3_C3_Day_1 + x_T4_C3_Day_1 <= 1
 first_period_C4_Day_1: x_T1_C4_Day_1 + x_T2_C4_Day_1 + x_T3_C4_Day_1 + x_T4_C4_Day_1 <= 1
 working_days_T1: x_T1_Day_1 + x_T1_Day_2 + x_T1_Day_3 + x_T1_Day_4 >= 3
 working_days_T2: x_T2_Day_1 + x_T2_Day_2 + x_T2_Day_3 + x_T2_Day_4 >= 3
 working_days_T3: x_T3_Day_1 + x_T3_Day_2 + x_T3_Day_3 + x_T3_Day_4 >= 3
 working_days_T4: x_T4_Day_1 + x_T4_Day_2 + x_T4_Day_3 + x_T4_Day_4 >= 3
Binary
  x_T1_C1_Day_1
  y_T4
  x_T2_C2_Day_4
  x_T1_C1_Day_4
  x_T4_C4_Day_3
  x_T1_C4_Day_4
  x_T1_C3_Day_2
  x_T3_C3_Day_3
  x_T2_C1_Day_4
  x_T3_C1_Day_3
  y_T3
  x_T1_C4_Day_3
  x_T2_C4_Day_1
  x_T3_C2_Day_2
  x_T2_C1_Day_1
  x_T1_C1_Day_2
  x_T2_C1_Day_3
  x_T4_C2_Day_3
  x_T1_C3_Day_1
  x_T1_C3_Day_4
  x_T1_C1_Day_3
  x_T4_C4_Day_1
  x_T4_C1_Day_1
  x_T4_C2_Day_2
  x_T2_C2_Day_2
  x_T2_C3_Day_4
  x_T1_C2_Day_1
  x_T2_C4_Day_3
  x_T3_C4_Day_3
  x_T3_C4_Day_4
  y_T1
  x_T3_C4_Day_2
  x_T3_C3_Day_1
  x_T2_C4_Day_4
  x_T4_C3_Day_2
  x_T4_C2_Day_1
  x_T4_C4_Day_4
  x_T2_C3_Day_2
  y_T2
  x_T3_C1_Day_2
  x_T4_C4_Day_2
  x_T2_C1_Day_2
  x_T2_C3_Day_3
  x_T1_C4_Day_1
  x_T4_C1_Day_2
  x_T4_C1_Day_3
  x_T1_C2_Day_2
  x_T2_C2_Day_1
  x_T4_C3_Day_4
  x_T3_C3_Day_4
  x_T3_C3_Day_2
  x_T3_C1_Day_4
  x_T2_C3_Day_1
  x_T1_C3_Day_3
  x_T4_C1_Day_4
  x_T1_C2_Day_3
  x_T3_C2_Day_3
  x_T1_C4_Day_2
  x_T4_C3_Day_1
  x_T2_C4_Day_2
  x_T3_C2_Day_1
  x_T4_C3_Day_3
  x_T3_C1_Day_1
  x_T1_C2_Day_4
  x_T3_C4_Day_1
  x_T4_C2_Day_4
  x_T2_C2_Day_3
  x_T3_C2_Day_4
General
  g_T4_C1
  g_T4_C2
  g_T1_C3
  g_T1_C1
  g_T2_C3
  g_T3_C3
  g_T1_C4
  g_T3_C4
  g_T2_C2
  g_T4_C4
  g_T2_C1
  g_T2_C4
  g_T3_C1
  g_T4_C3
  g_T1_C2
  g_T3_C2
End
